(set-info :smt-lib-version 2.6)
(set-logic LRA)
(set-info :source |
   Monniaux, David; Quantifier Elimination by Lazy Model Enumeration, CAV 2010
|)
(set-info :category "random")
; ./Mjollnir_examples/B2/formula_252.m
(set-info :status sat)
(assert
 (forall ((|v11:0| Real) )(exists ((|v10:1| Real) )(forall ((|v9:2| Real) )(exists ((|v8:3| Real) )(forall ((|v7:4| Real) )(exists ((|v6:5| Real) )(forall ((|v5:6| Real) )(exists ((|v4:7| Real) )(forall ((|v3:8| Real) )(exists ((|v2:9| Real) )(forall ((|v1:10| Real) )(exists ((|v0:11| Real) )(let ((?x292 (- 13)))
(let ((?x289 (- 5)))
(let ((?x290 (* ?x289 |v1:10|)))
(let ((?x450 (+ (+ (+ (* (- 8) |v8:3|) (* (- 15) |v1:10|)) ?x290) (* (- 9) |v5:6|))))
(let ((?x100 14))
(let ((?x119 (- 8)))
(let ((?x274 (* ?x119 |v5:6|)))
(let ((?x126 10))
(let ((?x127 (* ?x126 |v2:9|)))
(let ((?x445 (+ (+ (+ (* (- 15) |v6:5|) (* 7 |v0:11|)) ?x127) ?x274)))
(let ((?x96 9))
(let ((?x437 (+ (+ (* (- 6) |v6:5|) (* 12 |v6:5|)) (* (- 17) |v3:8|))))
(let ((?x92 15))
(let ((?x82 3))
(let ((?x131 (* ?x82 |v6:5|)))
(let ((?x432 (+ (+ (+ (* 17 |v1:10|) (* (- 6) |v11:0|)) ?x131) (* 0 |v0:11|))))
(let (($x453 (and (or (<= ?x432 ?x92) (<= (+ ?x437 (* 19 |v5:6|)) ?x96)) (or (<= ?x445 ?x100) (<= ?x450 ?x292)))))
(let ((?x266 (- 20)))
(let ((?x422 (+ (+ (* 2 |v6:5|) (* (- 12) |v0:11|)) (* ?x289 |v10:1|))))
(let ((?x14 (- 6)))
(let ((?x51 (- 1)))
(let ((?x409 (* ?x51 |v3:8|)))
(let ((?x417 (+ (+ (+ (* ?x14 |v10:1|) (* 20 |v2:9|)) ?x409) (* ?x292 |v3:8|))))
(let ((?x185 17))
(let ((?x407 (* ?x185 |v1:10|)))
(let ((?x410 (+ (+ (+ (* (- 12) |v10:1|) (* 11 |v11:0|)) ?x407) ?x409)))
(let ((?x111 19))
(let ((?x400 (+ (+ (* (- 12) |v8:3|) (* ?x82 |v2:9|)) (* (- 14) |v0:11|))))
(let (($x427 (or (and (<= (+ ?x400 (* 16 |v0:11|)) ?x111) (<= ?x410 ?x82)) (and (<= ?x417 ?x14) (<= (+ ?x422 (* 12 |v1:10|)) ?x266)))))
(let ((?x260 (- 9)))
(let ((?x389 (+ (+ (* (- 7) |v3:8|) (* ?x289 |v0:11|)) (* 0 |v6:5|))))
(let ((?x256 (- 4)))
(let ((?x382 (+ (+ (* (- 11) |v0:11|) (* (- 2) |v7:4|)) (* ?x111 |v10:1|))))
(let (($x393 (and (<= (+ ?x382 (* (- 10) |v8:3|)) ?x256) (<= (+ ?x389 (* 7 |v4:7|)) ?x260))))
(let ((?x136 6))
(let ((?x376 (+ (+ (+ (* 7 |v8:3|) |v2:9|) (* 5 |v0:11|)) (* (- 14) |v1:10|))))
(let ((?x34 (- 18)))
(let ((?x30 (- 12)))
(let ((?x367 (* ?x30 |v0:11|)))
(let ((?x370 (+ (+ (+ (* 7 |v2:9|) (* ?x289 |v4:7|)) ?x367) (* ?x92 |v10:1|))))
(let ((?x47 (- 2)))
(let ((?x137 (* ?x136 |v2:9|)))
(let ((?x361 (+ (+ (* (- 15) |v2:9|) (* 20 |v10:1|)) (* 18 |v1:10|))))
(let ((?x355 (+ (+ (+ (* ?x82 |v1:10|) (* ?x126 |v0:11|)) (* (- 19) |v4:7|)) (* ?x266 |v8:3|))))
(let ((?x144 (- 15)))
(let ((?x212 (- 10)))
(let ((?x231 (* ?x212 |v6:5|)))
(let ((?x347 (+ (+ (+ (* 12 |v6:5|) (* 7 |v0:11|)) ?x231) (* ?x14 |v5:6|))))
(let ((?x68 4))
(let ((?x52 (* ?x51 |v11:0|)))
(let ((?x340 (+ (+ (+ (* 2 |v11:0|) (* 7 |v6:5|)) ?x52) (* ?x260 |v2:9|))))
(let (($x365 (and (and (<= ?x340 ?x68) (<= ?x347 ?x144)) (and (<= ?x355 ?x260) (<= (+ ?x361 ?x137) ?x47)))))
(let (($x455 (and (or $x365 (and (or (<= ?x370 ?x34) (<= ?x376 ?x136)) $x393)) (and $x427 $x453))))
(let ((?x330 12))
(let ((?x327 (+ (+ (* 2 |v10:1|) (* ?x34 |v11:0|)) (* (- 11) |v9:2|))))
(let ((?x320 (+ (+ (+ (* ?x144 |v8:3|) (* ?x144 |v1:10|)) (* ?x96 |v11:0|)) (* ?x119 |v7:4|))))
(let ((?x25 2))
(let ((?x10 (- 19)))
(let ((?x11 (* ?x10 |v7:4|)))
(let ((?x313 (+ (+ (+ (* 8 |v6:5|) (* ?x289 |v4:7|)) (* ?x292 |v8:3|)) ?x11)))
(let (($x332 (and (and (<= ?x313 ?x25) (<= ?x320 ?x96)) (<= (+ ?x327 (* ?x185 |v9:2|)) ?x330))))
(let ((?x304 (+ (+ (+ ?x137 (* ?x292 |v9:2|)) (* 5 |v11:0|)) (* ?x212 |v1:10|))))
(let (($x298 (<= (+ (+ (+ ?x290 (* ?x292 |v1:10|)) (* 13 |v0:11|)) ?x11) ?x256)))
(let ((?x108 0))
(let ((?x285 (+ (+ (+ (* (- 11) |v2:9|) (* (- 11) |v8:3|)) ?x52) (* (- 17) |v11:0|))))
(let (($x280 (<= (+ (+ (+ (* ?x185 |v11:0|) ?x274) (* ?x126 |v0:11|)) (* ?x111 |v0:11|)) ?x82)))
(let ((?x264 (+ (+ (* (- 7) |v2:9|) (* ?x260 |v6:5|)) (* (- 3) |v4:7|))))
(let ((?x253 (+ (+ (* 16 |v7:4|) (* (- 14) |v2:9|)) (* 18 |v11:0|))))
(let (($x270 (and (<= (+ ?x253 (* ?x96 |v0:11|)) ?x256) (<= (+ ?x264 (* ?x266 |v10:1|)) ?x96))))
(let ((?x243 (+ (+ (+ (* ?x136 |v4:7|) (* ?x10 |v2:9|)) (* 8 |v5:6|)) (* ?x10 |v10:1|))))
(let ((?x78 18))
(let (($x237 (<= (+ (+ (+ ?x231 (* ?x136 |v9:2|)) |v6:5|) (* (- 11) |v8:3|)) ?x78)))
(let ((?x64 (- 17)))
(let ((?x226 (* ?x25 |v10:1|)))
(let ((?x225 (+ (+ (* (- 7) |v9:2|) (* ?x212 |v10:1|)) (* 5 |v1:10|))))
(let ((?x219 8))
(let ((?x76 (* ?x51 |v6:5|)))
(let (($x220 (<= (+ (+ (+ (* ?x212 |v4:7|) (* ?x47 |v10:1|)) (* ?x185 |v6:5|)) ?x76) ?x219)))
(let ((?x206 (+ (+ (+ |v2:9| (* (- 7) |v5:6|)) (* (- 16) |v7:4|)) |v9:2|)))
(let ((?x156 (- 16)))
(let ((?x197 (+ (+ (* ?x47 |v5:6|) (* 16 |v10:1|)) (* 7 |v3:8|))))
(let (($x209 (or (<= (+ ?x197 (* (- 11) |v11:0|)) ?x156) (<= ?x206 (- 3)))))
(let (($x272 (and (and $x209 (or $x220 (<= (+ ?x225 ?x226) ?x64))) (or (and $x237 (<= ?x243 ?x108)) $x270))))
(let (($x334 (or $x272 (and (or (and $x280 (<= ?x285 ?x108)) (or $x298 (<= ?x304 ?x212))) $x332))))
(let ((?x189 (+ (+ (+ (* ?x92 |v9:2|) (* 20 |v3:8|)) (* ?x185 |v8:3|)) (* ?x126 |v10:1|))))
(let ((?x179 (+ (+ (+ (* ?x144 |v4:7|) (* ?x144 |v3:8|)) (* (- 11) |v10:1|)) (* ?x82 |v10:1|))))
(let ((?x167 (+ (+ (* 7 |v2:9|) (* 5 |v9:2|)) (* 16 |v8:3|))))
(let ((?x160 (+ (+ (+ (* 5 |v3:8|) (* ?x14 |v7:4|)) (* ?x156 |v1:10|)) (* 16 |v1:10|))))
(let ((?x145 (* ?x144 |v8:3|)))
(let ((?x146 (+ (+ (+ (* 7 |v11:0|) ?x137) (* 20 |v3:8|)) ?x145)))
(let (($x148 (or (<= (+ (+ (+ (* ?x51 |v10:1|) ?x127) (* ?x100 |v2:9|)) ?x131) ?x34) (<= ?x146 ?x100))))
(let (($x181 (or (or $x148 (or (<= ?x160 ?x82) (<= (+ ?x167 (* ?x96 |v1:10|)) ?x34))) (<= ?x179 ?x51))))
(let ((?x120 (* ?x119 |v8:3|)))
(let ((?x121 (+ (+ (+ (* ?x108 |v4:7|) (* ?x111 |v6:5|)) (* 13 |v11:0|)) ?x120)))
(let ((?x102 (+ (+ (+ (* ?x51 |v0:11|) (* ?x92 |v8:3|)) (* ?x96 |v8:3|)) (* ?x100 |v5:6|))))
(let ((?x88 (+ (+ (+ ?x76 (* ?x78 |v6:5|)) (* ?x82 |v7:4|)) (* 16 |v11:0|))))
(let ((?x72 (* ?x10 |v2:9|)))
(let ((?x73 (+ (+ (+ (* (- 11) |v0:11|) (* ?x64 |v6:5|)) (* ?x68 |v4:7|)) ?x72)))
(let ((?x55 (- 7)))
(let ((?x56 (* ?x55 |v3:8|)))
(let (($x58 (<= (+ (+ (+ (* 11 |v4:7|) (* ?x47 |v0:11|)) ?x52) ?x56) ?x30)))
(let ((?x42 11))
(let (($x43 (<= (+ (+ (+ (* ?x30 |v11:0|) (* ?x34 |v3:8|)) (* ?x14 |v0:11|)) |v4:7|) ?x42)))
(let ((?x19 7))
(let ((?x23 (* ?x19 |v8:3|)))
(let (($x44 (and (<= (+ (+ (+ ?x11 (* ?x14 |v10:1|)) (* ?x19 |v5:6|)) ?x23) ?x25) $x43)))
(let (($x106 (or $x44 (and (and $x58 (<= ?x73 ?x14)) (and (<= ?x88 ?x14) (<= ?x102 ?x92))))))
(or (or (and $x106 (<= ?x121 ?x68)) (or $x181 (<= ?x189 ?x144))) (and $x334 $x455))))))))))))))))))))))))))))))))))))))))))))))))))))))))))))))))))))))))))))))))))))))))))))))))))))))))))))))
)
)
)
)
)
)
)
)
)
)
)
)
(check-sat)
(exit)

